% File represents an instance of a Composite Structure problem to be solved by a CP framework
% Created on 2025-03-25 14:05:13.611
T = 52;
n = 9;
m = 12;
edges = [(1, 2),
(4, 5),
(8, 7),
(2, 3),
(6, 5),
(8, 9),
(1, 4),
(7, 4),
(2, 5),
(8, 5),
(3, 6),
(6, 9)];
counts = [|5, 21, 15, 11,
|5, 21, 15, 10,
|5, 21, 15, 8,
|4, 17, 13, 8,
|4, 17, 13, 7,
|5, 17, 15, 8,
|4, 17, 13, 9,
|4, 17, 13, 11,
|4, 17, 6, 8|];
